c --- [ banner ] -------------------------------------------------------------
c 
c CaDiCaL Radically Simplified CDCL SAT Solver
c Copyright (c) 2016-2021 A. Biere, M. Fleury, N. Froleyks
c 
c Version 1.5.2 a5f15211db36c3956764e18194dd5bd63bf3b5e6
c g++ (GCC) 9.3.0 -Wall -Wextra -O3 -DNDEBUG
c Fri Oct 21 01:27:37 EDT 2022 Linux gra-login3 3.10.0-1160.66.1.el7.x86_64 x86_64
c 
c --- [ limit ] --------------------------------------------------------------
c 
c setting conflict limit to 200000 conflicts (due to '200000')
c 
c --- [ parsing input ] ------------------------------------------------------
c 
c reading DIMACS file from '23.cubes539.adj'
c opening file to read '23.cubes539.adj'
c found 'p cnf 5320 914895' header
c parsed 914895 clauses in 8.15 seconds process time
c closing file '23.cubes539.adj'
c after reading 637830010 bytes 608.3 MB
c 
c --- [ options ] ------------------------------------------------------------
c 
c all options are set to their default value
c 
c --- [ solving ] ------------------------------------------------------------
c 
c time measured in process time since initialization
c 
c  seconds   reductions  redundant  irredundant
c          MB    restarts       trail      variables
c           level   conflicts       glue        remaining
c 
c *  8.15 631  0 0   0    0    0  0% 0 914847 2102 40%
c {  8.48 652  0 0   0    0    0  0% 0 914847 2102 40%
c i  8.67 663 1083 0   0   15    8 37% 2 914847 2090 39%
c i  9.91 698 315 0   8  109   84 27% 8 914847 2063 39%
c i 10.94 709 220 0  24  173  136 26% 16 914847 2039 38%
c i 11.11 711 207 0  28  189  151 26% 19 914847 2038 38%
c i 11.15 711 205 0  29  191  152 26% 19 914847 2037 38%
c - 14.22 690 145 1  57  300  216 26% 21 259068 2037 38%
c i 14.26 690 144 1  57  302  217 26% 21 259068 2036 38%
c i 14.56 690 97 1  66  545  313 23% 17 259068 2035 38%
c i 14.57 690 97 1  66  546  313 23% 17 259068 2034 38%
c i 14.78 690 99 1  73  578  344 23% 19 259068 2033 38%
c i 14.80 690 99 1  74  581  345 23% 19 259068 2031 38%
c i 14.86 690 100 1  76  590  352 24% 19 259068 2030 38%
c i 14.86 690 100 1  77  592  353 24% 19 259068 2029 38%
c i 14.89 690 99 1  79  598  358 24% 19 259068 2028 38%
c i 14.99 691 98 1  83  618  374 24% 20 259068 2027 38%
c i 15.14 691 96 1  92  659  404 24% 21 259068 2026 38%
c i 15.15 691 95 1  94  664  407 24% 21 259068 2025 38%
c i 15.29 692 93 1 102  704  442 24% 21 259068 2024 38%
c 
c  seconds   reductions  redundant   irredundant
c          MB    restarts       trail       variables
c           level   conflicts       glue         remaining
c 
c i 15.59 692 91 1 115  755  480 24% 21 259068 2023 38%
c i 15.66 692 91 1 120  771  494 24% 22 259068 2022 38%
c i 15.69 692 91 1 124  786  506 24% 22 259068 2020 38%
c i 15.81 692 89 1 132  821  537 25% 23 259068 2019 38%
c i 15.83 692 88 1 134  826  540 25% 23 259068 2018 38%
c i 15.86 692 88 1 137  841  552 25% 23 259068 2017 38%
c i 15.86 692 88 1 138  843  553 25% 23 259068 2016 38%
c i 15.86 692 88 1 138  844  553 25% 23 259068 2015 38%
c i 15.90 692 81 1 146  929  600 25% 22 259068 2014 38%
c } 15.92 692 76 1 146 1000  639 26% 22 259068 2014 38%
c [ 15.92 692  0 1 146 1000  639  0% 0 259068 2014 38%
c O 15.92 692 13 1 146 1002  640 19% 4 259068 2014 38%
c i 15.92 692 13 1 146 1002  640 19% 4 259068 2000 38%
c i 16.00 692 10 1 146 1021  658 23% 7 259068 1999 38%
c i 16.02 692 18 1 146 1038  672 26% 14 259068 1998 38%
c i 16.02 692 19 1 146 1052  678 27% 16 259068 1997 38%
c i 16.03 692 19 1 146 1062  682 27% 16 259068 1996 38%
c i 16.05 692 19 1 146 1101  701 28% 16 259068 1995 38%
c i 16.05 692 19 1 146 1102  701 28% 16 259068 1994 37%
c - 16.46 736 20 2 146 1149  631 29% 17 258738 1994 37%
c 
c  seconds   reductions  redundant   irredundant
c          MB    restarts       trail       variables
c           level   conflicts       glue         remaining
c 
c i 16.53 736 20 2 146 1180  651 29% 17 258738 1993 37%
c i 16.54 736 20 2 146 1187  657 29% 17 258738 1992 37%
c i 16.55 736 22 2 146 1221  686 29% 18 258738 1991 37%
c i 16.55 736 22 2 146 1222  686 29% 18 258738 1990 37%
c i 16.56 736 22 2 146 1235  698 29% 18 258738 1989 37%
c i 16.56 736 22 2 146 1261  712 28% 18 258738 1988 37%
c i 16.58 736 22 2 146 1323  735 28% 18 258738 1987 37%
c i 16.63 736 23 2 146 1577  868 28% 20 258738 1986 37%
c i 16.66 736 23 2 146 1677  910 28% 20 258738 1985 37%
c i 16.66 736 23 2 146 1683  913 28% 20 258738 1984 37%
c i 16.66 736 23 2 146 1693  920 28% 20 258738 1983 37%
c i 16.66 736 23 2 146 1700  924 28% 20 258738 1982 37%
c i 16.67 736 23 2 146 1705  927 28% 20 258738 1981 37%
c i 16.67 736 23 2 146 1725  937 28% 20 258738 1980 37%
c i 16.74 736 23 2 146 2010 1113 28% 20 258738 1979 37%
c i 16.75 736 23 2 146 2026 1122 28% 20 258738 1978 37%
c i 16.79 736 23 2 147 2233 1233 28% 20 258738 1977 37%
c i 16.80 736 23 2 147 2240 1237 28% 20 258738 1976 37%
c i 16.80 736 23 2 147 2243 1239 28% 20 258738 1975 37%
c - 17.11 732 23 3 147 2421 1017 28% 20 258681 1975 37%
c 
c  seconds   reductions  redundant   irredundant
c          MB    restarts       trail       variables
c           level   conflicts       glue         remaining
c 
c i 17.34 732 22 3 147 2568 1089 51% 19 258681 1974 37%
c ] 17.49 732 22 3 147 3001 1298 51% 19 258681 1974 37%
c { 17.49 732 76 3 147 3001 1298 69% 22 258681 1974 37%
c F 17.50 732 76 3 147 3005 1302 69% 22 258681 1974 37%
c i 17.74 732 68 3 147 3145 1406 66% 20 258681 1973 37%
c i 17.80 732 65 3 147 3225 1460 65% 19 258681 1972 37%
c i 17.92 732 59 3 147 3369 1557 63% 18 258681 1971 37%
c i 17.94 732 59 3 147 3371 1558 63% 18 258681 1970 37%
c i 18.00 732 60 3 148 3393 1578 63% 18 258681 1969 37%
c i 18.19 732 59 3 167 3486 1656 61% 19 258681 1968 37%
c i 18.34 732 59 3 185 3568 1725 61% 19 258681 1967 37%
c i 18.45 732 57 3 195 3693 1839 60% 20 258681 1966 37%
c i 18.67 732 54 3 219 3908 2012 59% 20 258681 1965 37%
c i 18.69 732 54 3 219 3938 2039 59% 20 258681 1964 37%
c i 18.70 732 54 3 221 3944 2044 59% 20 258681 1963 37%
c i 18.99 732 54 3 254 4096 2164 58% 20 258681 1962 37%
c - 19.31 730 54 4 261 4118 1685 58% 21 258642 1962 37%
c i 19.49 730 54 4 268 4147 1713 57% 21 258642 1961 37%
c i 19.88 730 56 4 296 4260 1809 57% 21 258642 1960 37%
c i 20.05 730 57 4 307 4305 1849 57% 22 258642 1959 37%
c 
c  seconds   reductions  redundant   irredundant
c          MB    restarts       trail       variables
c           level   conflicts       glue         remaining
c 
c i 20.17 730 56 4 319 4347 1876 56% 22 258642 1958 37%
c i 20.31 730 57 4 336 4431 1931 56% 22 258642 1957 37%
c i 20.45 730 57 4 343 4454 1953 55% 22 258642 1956 37%
c i 20.93 730 58 4 391 4652 2133 55% 23 258642 1955 37%
c i 21.29 730 58 4 419 4835 2292 54% 23 258642 1954 37%
c d 21.73 730 56 4 419 5001 2427 54% 23 244015 1942 37%
c 2 21.78 730 56 4 419 5001 3188 54% 23 244015 1935 36%
c p 23.14 730 56 4 419 5001 6528 54% 23 244015 1883 35%
c d 23.47 730 56 4 419 5001 6384 54% 23 217910 1881 35%
c # 24.05 730 48 4 422 6007 7121 53% 22 217910 1881 35%
c - 24.58 708 48 5 450 6238 2644 53% 23 217910 1881 35%
c } 25.96 708 50 5 630 7002 3307 52% 25 217910 1881 35%
c [ 25.96 708 22 5 630 7002 3307 51% 19 217910 1881 35%
c - 26.46 709 27 6 631 8646 2972 51% 23 217910 1881 35%
c I 26.91 709 28 6 632 10009 3796 51% 24 217910 1881 35%
c - 27.49 709 32 7 634 11456 3367 51% 27 217910 1881 35%
c - 28.85 709 32 8 635 14667 3682 51% 27 217910 1881 35%
c 2 29.08 709 32 8 635 15001 4859 51% 27 217908 1881 35%
c p 29.46 709 32 8 635 15001 8060 51% 27 217908 1881 35%
c ] 29.49 709 32 8 635 15002 8061 51% 27 217908 1881 35%
c 
c  seconds   reductions   redundant   irredundant
c          MB    restarts        trail       variables
c           level    conflicts       glue         remaining
c 
c { 29.49 709 50 8 635 15002 8061 52% 25 217908 1881 35%
c B 29.53 709 50 8 638 15010 8068 52% 25 217908 1881 35%
c s 30.67 709 39 8 645 17532 9337 51% 21 216188 1881 35%
c v 32.28 709 39 8 645 17532 9337 51% 21 216154 1881 35%
c w 32.33 709 39 8 645 17532 9335 51% 21 216154 1881 35%
c t 32.33 709 39 8 645 17532 9291 51% 21 216137 1881 35%
c e 32.93 709 39 8 645 17532 6725 51% 21 213993 820 15%
c s 33.02 709 39 8 645 17532 6725 51% 21 213684 820 15%
c - 33.95 709 36 9 645 18281 4032 71% 20 213684 820 15%
c W 34.88 709 31 9 656 21011 5592 71% 18 213684 820 15%
c - 36.19 709 32 10 793 22271 4617 71% 19 213684 820 15%
c - 37.36 709 28 11 797 26660 5283 71% 17 213684 820 15%
c F 37.73 709 27 11 816 28012 6057 71% 17 213684 820 15%
c 2 40.39 709 29 11 1143 30002 8096 70% 18 213682 820 15%
c p 41.20 709 29 11 1143 30002 9963 70% 18 213682 818 15%
c } 42.36 709 29 11 1265 31003 10764 70% 18 213682 818 15%
c [ 42.36 709 32 11 1265 31003 10764 122% 27 213682 818 15%
c - 42.67 709 31 12 1265 31448 6368 120% 27 213676 818 15%
c B 43.79 709 29 12 1268 36015 9122 104% 25 213676 818 15%
c - 44.25 709 29 13 1268 36636 6619 102% 24 213676 818 15%
c 
c  seconds   reductions     redundant    irredundant
c          MB     restarts         trail        variables
c           level      conflicts        glue        remaining
c 
c ] 44.48 709 28 13 1268 37356 7151 101% 24 213676 818 15%
c 1 44.48 709 28 13 1268 37356 7151 101% 24 213676 818 15%
c 
c --- [ writing output ] -----------------------------------------------------
c 
c writing simplified CNF to DIMACS file 'simp/23.cubes539.adj.simp1'
c * 44.48 709 28 13 1268 37356 7151 101% 24 213676 818 15%
c opening file to write 'simp/23.cubes539.adj.simp1'
c writing 'p cnf 5320 213676' header
c closing file 'simp/23.cubes539.adj.simp1'
c after writing 84958787 bytes 81.0 MB
c wrote 213676 clauses in 0.62 seconds process time
c 
c --- [ writing extension ] --------------------------------------------------
c 
c writing extension stack to 'simp/23.cubes539.adj.ext1'
c opening file to write 'simp/23.cubes539.adj.ext1'
c closing file 'simp/23.cubes539.adj.ext1'
c after writing 71653 bytes 0.1 MB
c wrote 3176 witnesses in 0.00 seconds process time
c 
c --- [ result ] -------------------------------------------------------------
c 
s SATISFIABLE
c 
c --- [ run-time profiling ] -------------------------------------------------
c 
c process time taken by individual solving procedures
c (percentage relative to process time for solving)
c 
c        30.01   82.60% search
c        22.68   62.43% unstable
c         8.15   22.44% parse
c         6.80   18.72% stable
c         6.32   17.40% simplify
c         2.55    7.02% probe
c         1.64    4.51% vivify
c         1.10    3.01% elim
c         0.32    0.89% lucky
c         0.20    0.55% walk
c         0.18    0.49% subsume
c         0.07    0.19% ternary
c   =================================
c        36.33   80.55% solve
c 
c last line shows process time for solving
c (percentage relative to total process time)
c 
c --- [ statistics ] ---------------------------------------------------------
c 
c chronological:              7205        19.29 %  of conflicts
c conflicts:                 37356      1028.30    per second
c decisions:                116364      3203.17    per second
c eliminated:                 1061        19.94 %  of all variables
c fixed:                       590        11.09 %  of all variables
c learned:                   36534        97.80 %  per conflict
c learned_lits:            5985700       100.00 %  learned literals
c minimized:                     0         0.00 %  learned literals
c shrunken:                4097632        68.46 %  learned literals
c minishrunken:             344037         5.75 %  learned literals
c propagations:            3804340         0.10 M  per second
c reduced:                   17283        46.27 %  per conflict
c rephased:                      8      4669.50    interval
c restarts:                   1268        29.46    interval
c stabilizing:                   3        43.78 %  of conflicts
c substituted:                  14         0.26 %  of all variables
c subsumed:                  14015         0.70 %  of all clauses
c strengthened:               4844         0.24 %  of all clauses
c ternary:                    2206         0.58 %  of resolved
c vivified:                     58         0.00 %  of all clauses
c walked:                        1     37356.00    interval
c weakened:                   2586         3.07    average size
c 
c seconds are measured in process time for solving
c 
c --- [ resources ] ----------------------------------------------------------
c 
c total process time since initialization:        45.10    seconds
c total real time since initialization:           45.23    seconds
c maximum resident set size of process:          836.79    MB
c 
c --- [ shutting down ] ------------------------------------------------------
c 
c exit 10
WARNING! DIMACS header mismatch: wrong number of variables.
============================[ Problem Statistics ]=============================
|                                                                             |
|  Number of variables:          2937                                         |
|  Number of clauses:          213682                                         |
|  Parse time:                   1.14 s                                       |
|  Simplification time:          0.04 s                                       |
|                                                                             |
============================[ Search Statistics ]====================================================
| Conflicts |          ORIGINAL         |          LEARNT          | Num Sols |      SUBGRAPHS      |
|           |    Vars  Clauses Literals |    Limit  Clauses Lit/Cl |          | Canonical Noncanon. |
=====================================================================================================
|       105 |    2858   213687 18943362 |     2000      105    185 |        0 |        13         5 |
|       260 |    2858   213692 18943574 |     2000      260    116 |        0 |        39        10 |
|       602 |    2858   213809 18946005 |     2000      602     88 |        0 |       113       127 |
|       961 |    2858   213831 18946541 |     2000      961     91 |        0 |       141       149 |
|      1476 |    2858   213840 18946859 |     2000     1476     89 |        0 |       156       158 |
|      2255 |    2858   213860 18947332 |     3600     1255     58 |        0 |       173       178 |
|      3431 |    2858   213897 18948310 |     3600     2431     73 |        0 |       192       215 |
|      5163 |    2858   213921 18948838 |     5000     2363     61 |        0 |       213       239 |
|      7776 |    2858   213972 18949837 |     5000     4976     74 |        0 |       270       290 |
|     11770 |    2858   214122 18952689 |     7553     3323     42 |        0 |       352       440 |
|     18090 |    2858   214676 18960032 |     8785     5875     51 |        0 |       472       994 |
|     26937 |    2858   214874 18963603 |    11205     5342     38 |        0 |       577      1192 |
|     40157 |    2858   215120 18968715 |    13606     6763     38 |        0 |       658      1438 |
|     60828 |    2858   216330 18991648 |    16012    13240     51 |        0 |      1010      2648 |
|     91271 |    2858   217581 19016020 |    19614    17885     54 |        0 |      1480      3899 |
|    135392 |    2858   217913 19023290 |    24409    19201     48 |        0 |      1660      4231 |
|    201486 |    2858   218323 19032557 |    30410    18296     36 |        0 |      1873      4641 |
|    300890 |    2858   219201 19049460 |    36405    35695     62 |        0 |      2187      5519 |
|    449260 |    2858   219782 19062711 |    44817    44077     65 |        0 |      2459      6100 |
|    672358 |    2858   221197 19094998 |    55614    43972     58 |        0 |      2971      7515 |
|   1006431 |    2858   222745 19130542 |    68808    39239     40 |        0 |      3635      9063 |
|   1507436 |    2858   224962 19182493 |    84419    46255     37 |        0 |      4507     11280 |
|   2259518 |    2858   228862 19272479 |   102428   102346     66 |        0 |      6179     15180 |
|   3386821 |    2858   233891 19386767 |   126420    91641     47 |        0 |      7995     20209 |
|   5079298 |    2820   213164 17404996 |   152598    99096     68 |        0 |     11100     29275 |
=====================================================================================================
Number of solutions   : 0
Canonical subgraphs   : 23866          (35 /sec)
          order  3    : 1              (100000 /sec)
          order  4    : 1              (250000 /sec)
          order  5    : 1              (125000 /sec)
          order  6    : 1              (33333 /sec)
          order  7    : 2              (7299 /sec)
          order  8    : 4              (1639 /sec)
          order  9    : 8              (379 /sec)
          order 10    : 29             (109 /sec)
          order 11    : 124            (31 /sec)
          order 12    : 615            (21 /sec)
          order 13    : 2994           (30 /sec)
          order 14    : 17380          (40 /sec)
          order 15    : 2079           (28 /sec)
          order 16    : 506            (22 /sec)
          order 17    : 38             (21 /sec)
          order 18    : 29             (21 /sec)
          order 19    : 27             (21 /sec)
          order 20    : 27             (20 /sec)
          order 21    : 0              (-nan /sec)
Noncanonical subgraphs: 225767         (324 /sec)
          order  3    : 0              (-nan /sec)
          order  4    : 0              (-nan /sec)
          order  5    : 0              (-nan /sec)
          order  6    : 0              (-nan /sec)
          order  7    : 0              (-nan /sec)
          order  8    : 0              (-nan /sec)
          order  9    : 0              (-nan /sec)
          order 10    : 0              (-nan /sec)
          order 11    : 0              (-nan /sec)
          order 12    : 0              (-nan /sec)
          order 13    : 7736           (9405 /sec)
          order 14    : 34769          (2421 /sec)
          order 15    : 181780         (271 /sec)
          order 16    : 1451           (193 /sec)
          order 17    : 3              (60 /sec)
          order 18    : 0              (-nan /sec)
          order 19    : 0              (-nan /sec)
          order 20    : 0              (-nan /sec)
Canonicity checking   : 674.054 s
Noncanonicity checking: 696.113 s
Total canonicity time : 1370.17 s
database reductions   : 157
restarts              : 12286
conflicts             : 7748297        (1995 /sec)
decisions             : 9756721        (0.00 % random) (2512 /sec)
propagations          : 348688725      (89775 /sec)
conflict literals     : 707024176      (56.86 % deleted)
actual reward         : 0.268348
Memory used           : 393.00 MB
CPU time              : 3884.02 s

UNSATISFIABLE
